10  575
1   8   41    46    12    33    40    45    20    50    
2   3   1    11    47    
3   6   6    17    38    10    25    15    
4   5   37    27    3    9    4    
5   6   31    8    13    43    34    49    
6   6   21    42    44    14    39    19    
7   4   36    22    35    29    
8   5   26    2    7    23    48    
9   7   16    32    18    24    28    5    30    
10   0

